* Problem:    timtab1-prescaled
* Class:      LP
* Rows:       171
* Columns:    397
* Non-zeros:  829
* Format:     Free MPS
*
NAME timtab1-prescaled
ROWS
 N R0000000
 E R0000001
 E R0000002
 E R0000003
 E R0000004
 E R0000005
 E R0000006
 E R0000007
 E R0000008
 E R0000009
 E R0000010
 E R0000011
 E R0000012
 E R0000013
 E R0000014
 E R0000015
 E R0000016
 E R0000017
 E R0000018
 E R0000019
 E R0000020
 E R0000021
 E R0000022
 E R0000023
 E R0000024
 E R0000025
 E R0000026
 E R0000027
 E R0000028
 E R0000029
 E R0000030
 E R0000031
 E R0000032
 E R0000033
 E R0000034
 E R0000035
 E R0000036
 E R0000037
 E R0000038
 E R0000039
 E R0000040
 E R0000041
 E R0000042
 E R0000043
 E R0000044
 E R0000045
 E R0000046
 E R0000047
 E R0000048
 E R0000049
 E R0000050
 E R0000051
 E R0000052
 E R0000053
 E R0000054
 E R0000055
 E R0000056
 E R0000057
 E R0000058
 E R0000059
 E R0000060
 E R0000061
 E R0000062
 E R0000063
 E R0000064
 E R0000065
 E R0000066
 E R0000067
 E R0000068
 E R0000069
 E R0000070
 E R0000071
 E R0000072
 E R0000073
 E R0000074
 E R0000075
 E R0000076
 E R0000077
 E R0000078
 E R0000079
 E R0000080
 E R0000081
 E R0000082
 E R0000083
 E R0000084
 E R0000085
 E R0000086
 E R0000087
 E R0000088
 E R0000089
 E R0000090
 E R0000091
 E R0000092
 E R0000093
 E R0000094
 E R0000095
 E R0000096
 E R0000097
 E R0000098
 E R0000099
 E R0000100
 E R0000101
 E R0000102
 E R0000103
 E R0000104
 E R0000105
 E R0000106
 E R0000107
 E R0000108
 E R0000109
 E R0000110
 E R0000111
 E R0000112
 E R0000113
 E R0000114
 E R0000115
 E R0000116
 E R0000117
 E R0000118
 E R0000119
 E R0000120
 E R0000121
 E R0000122
 E R0000123
 E R0000124
 E R0000125
 E R0000126
 E R0000127
 E R0000128
 E R0000129
 E R0000130
 E R0000131
 E R0000132
 E R0000133
 E R0000134
 E R0000135
 E R0000136
 E R0000137
 E R0000138
 E R0000139
 E R0000140
 E R0000141
 E R0000142
 E R0000143
 E R0000144
 E R0000145
 E R0000146
 E R0000147
 E R0000148
 E R0000149
 E R0000150
 E R0000151
 E R0000152
 E R0000153
 E R0000154
 E R0000155
 E R0000156
 E R0000157
 E R0000158
 E R0000159
 E R0000160
 E R0000161
 E R0000162
 E R0000163
 E R0000164
 E R0000165
 E R0000166
 E R0000167
 E R0000168
 E R0000169
 E R0000170
 E R0000171
COLUMNS
 c0 R0000000 60060 R0000001 60
 c1 R0000125 60 R0000003 -60
 c1 R0000002 -60
 c2 R0000002 60
 c3 R0000000 60000 R0000125 60
 c3 R0000003 -60 R0000001 60
 c4 R0000000 60060 R0000125 60
 c4 R0000004 -60 R0000001 60
 c5 R0000004 60 R0000003 -60
 c6 R0000000 60000 R0000003 60
 c7 R0000000 60060 R0000004 60
 c8 R0000005 60
 c9 R0000006 60
 c10 R0000007 60
 c11 R0000000 83220 R0000007 -60
 c11 R0000006 -60 R0000005 60
 c11 R0000004 60
 c12 R0000008 60
 c13 R0000000 14700 R0000170 -60
 c13 R0000166 -60 R0000125 60
 c13 R0000115 -60 R0000005 -60
 c13 R0000004 -60 R0000001 60
 c14 R0000000 26220 R0000145 -60
 c14 R0000116 -60 R0000097 60
 c14 R0000096 -60 R0000092 60
 c14 R0000010 -60
 c15 R0000000 30000 R0000165 60
 c15 R0000164 60 R0000161 -60
 c15 R0000100 60 R0000089 60
 c16 R0000000 30000 R0000009 60
 c17 R0000000 43500 R0000010 60
 c18 R0000163 -60 R0000162 60
 c18 R0000161 60 R0000079 -60
 c18 R0000011 -60
 c19 R0000011 60
 c20 R0000012 60
 c21 R0000000 120120 R0000170 -60
 c21 R0000166 -60 R0000165 60
 c21 R0000164 60 R0000163 -60
 c21 R0000162 60 R0000145 -60
 c21 R0000125 60 R0000116 -60
 c21 R0000115 -60 R0000100 60
 c21 R0000097 60 R0000096 -60
 c21 R0000092 60 R0000089 60
 c21 R0000079 -60 R0000012 -60
 c21 R0000009 60 R0000008 60
 c21 R0000007 -60 R0000006 -60
 c21 R0000001 60
 c22 R0000160 -60 R0000158 60
 c22 R0000156 -60 R0000110 60
 c22 R0000103 -60 R0000064 -60
 c22 R0000053 -60 R0000016 -60
 c22 R0000015 -60 R0000014 -60
 c23 R0000013 60
 c24 R0000000 17460 R0000014 60
 c25 R0000015 60
 c26 R0000000 19860 R0000016 60
 c27 R0000000 28860 R0000158 -60
 c27 R0000106 60 R0000017 -60
 c28 R0000000 20460 R0000163 60
 c28 R0000159 -60 R0000096 60
 c28 R0000091 60 R0000018 -60
 c28 R0000012 60 R0000008 -60
 c29 R0000000 39000 R0000017 60
 c30 R0000000 31200 R0000018 60
 c31 R0000000 60000 R0000165 60
 c31 R0000164 60 R0000162 60
 c31 R0000151 60 R0000150 60
 c31 R0000149 60 R0000129 60
 c31 R0000127 60 R0000123 60
 c31 R0000106 60 R0000104 -60
 c31 R0000103 -60 R0000102 -60
 c31 R0000100 60 R0000099 -60
 c31 R0000092 60 R0000091 60
 c31 R0000089 60 R0000087 60
 c31 R0000084 -60 R0000083 -60
 c31 R0000079 -60 R0000075 60
 c31 R0000074 60 R0000073 60
 c31 R0000072 60 R0000071 60
 c31 R0000070 60 R0000069 -60
 c31 R0000068 -60 R0000067 -60
 c31 R0000066 -60 R0000065 -60
 c31 R0000064 -60 R0000063 60
 c31 R0000062 60 R0000061 -60
 c31 R0000055 -60 R0000054 -60
 c31 R0000053 -60 R0000050 60
 c31 R0000049 60 R0000047 60
 c31 R0000042 -60 R0000041 -60
 c31 R0000033 -60 R0000032 -60
 c31 R0000031 -60 R0000030 -60
 c31 R0000026 60 R0000025 60
 c31 R0000009 60
 c32 R0000157 -60 R0000156 -60
 c32 R0000151 -60 R0000149 -60
 c32 R0000112 -60 R0000104 60
 c32 R0000099 60 R0000087 -60
 c32 R0000075 -60 R0000073 -60
 c32 R0000068 60 R0000061 60
 c32 R0000049 -60 R0000021 -60
 c32 R0000020 -60
 c33 R0000170 -60 R0000166 -60
 c33 R0000155 -60 R0000154 -60
 c33 R0000150 -60 R0000146 60
 c33 R0000145 -60 R0000138 60
 c33 R0000129 -60 R0000127 -60
 c33 R0000125 60 R0000123 -60
 c33 R0000121 60 R0000116 -60
 c33 R0000115 -60 R0000113 60
 c33 R0000112 60 R0000111 60
 c33 R0000110 60 R0000102 60
 c33 R0000097 60 R0000083 60
 c33 R0000072 -60 R0000071 -60
 c33 R0000069 60 R0000066 60
 c33 R0000065 60 R0000063 -60
 c33 R0000062 -60 R0000054 60
 c33 R0000050 -60 R0000047 -60
 c33 R0000027 60 R0000019 -60
 c33 R0000007 -60 R0000006 -60
 c33 R0000001 60
 c34 R0000155 60 R0000154 60
 c34 R0000153 60 R0000146 -60
 c34 R0000138 -60 R0000121 -60
 c34 R0000113 -60 R0000074 -60
 c34 R0000067 60
 c35 R0000019 60
 c36 R0000160 -60 R0000159 -60
 c36 R0000157 60 R0000111 -60
 c36 R0000084 60 R0000070 -60
 c36 R0000055 60 R0000013 60
 c37 R0000020 60
 c38 R0000000 15000 R0000021 60
 c39 R0000000 60060 R0000153 -60
 c39 R0000042 60 R0000041 60
 c39 R0000029 60 R0000028 60
 c40 R0000000 13620 R0000033 60
 c40 R0000032 60 R0000031 60
 c40 R0000030 60 R0000029 -60
 c40 R0000028 -60 R0000027 -60
 c40 R0000026 -60 R0000025 -60
 c40 R0000024 -60 R0000023 -60
 c40 R0000022 -60
 c41 R0000000 20280 R0000022 60
 c42 R0000023 60
 c43 R0000000 57240 R0000024 60
 c44 R0000025 60
 c45 R0000026 60
 c46 R0000000 120120 R0000027 60
 c47 R0000028 60
 c48 R0000029 60
 c49 R0000000 20000 R0000030 60
 c50 R0000000 20000 R0000031 60
 c51 R0000000 40000 R0000032 60
 c52 R0000000 40000 R0000033 60
 c53 R0000000 20000 R0000152 -60
 c53 R0000080 60 R0000034 -60
 c53 R0000026 -60 R0000025 -60
 c54 R0000000 20000 R0000034 60
 c55 R0000152 -60 R0000098 60
 c55 R0000036 -60 R0000031 -60
 c55 R0000030 -60
 c56 R0000000 60060 R0000035 60
 c57 R0000036 60
 c58 R0000000 60060 R0000037 60
 c59 R0000038 60
 c60 R0000039 60
 c61 R0000000 49380 R0000098 -60
 c61 R0000080 60 R0000040 -60
 c61 R0000039 -60 R0000038 -60
 c61 R0000037 -60 R0000035 -60
 c61 R0000033 60 R0000032 60
 c61 R0000031 60 R0000030 60
 c61 R0000026 -60 R0000025 -60
 c62 R0000000 26400 R0000040 60
 c63 R0000000 60000 R0000041 60
 c64 R0000000 60000 R0000042 60
 c65 R0000000 22260 R0000043 60
 c66 R0000000 60060 R0000044 -60
 c66 R0000043 -60 R0000042 60
 c66 R0000041 60 R0000039 60
 c66 R0000038 60
 c67 R0000000 60060 R0000044 60
 c68 R0000045 60
 c69 R0000046 60
 c70 R0000000 60060 R0000047 60
 c71 R0000000 13860 R0000048 60
 c72 R0000049 60
 c73 R0000051 -60 R0000050 -60
 c73 R0000049 -60 R0000048 -60
 c73 R0000047 -60 R0000046 60
 c73 R0000045 60 R0000044 60
 c74 R0000000 28200 R0000050 60
 c75 R0000000 31200 R0000051 60
 c76 R0000000 14100 R0000063 60
 c76 R0000062 60 R0000061 -60
 c76 R0000060 -60 R0000059 -60
 c76 R0000058 -60 R0000057 -60
 c76 R0000056 -60 R0000055 -60
 c76 R0000054 -60 R0000053 -60
 c76 R0000052 -60 R0000051 -60
 c76 R0000048 -60
 c77 R0000000 17700 R0000052 60
 c78 R0000000 39000 R0000053 60
 c79 R0000000 30000 R0000054 60
 c80 R0000000 30000 R0000055 60
 c81 R0000056 60
 c82 R0000057 60
 c83 R0000058 60
 c84 R0000000 28440 R0000059 60
 c85 R0000000 54540 R0000060 60
 c86 R0000000 16980 R0000061 60
 c87 R0000000 23040 R0000062 60
 c88 R0000000 60060 R0000063 60
 c89 R0000064 60
 c90 R0000000 66000 R0000065 60
 c91 R0000000 29400 R0000066 60
 c92 R0000000 27840 R0000067 60
 c93 R0000000 60000 R0000068 60
 c94 R0000080 -60 R0000079 60
 c95 R0000069 60
 c96 R0000080 -60 R0000079 60
 c96 R0000078 -60 R0000077 -60
 c96 R0000076 -60 R0000075 -60
 c96 R0000074 -60 R0000073 -60
 c96 R0000072 -60 R0000071 -60
 c96 R0000070 -60 R0000069 60
 c96 R0000068 60 R0000067 60
 c96 R0000066 60 R0000065 60
 c96 R0000064 60 R0000058 -60
 c97 R0000070 60
 c98 R0000071 60
 c99 R0000072 60
 c100 R0000073 60
 c101 R0000074 60
 c102 R0000000 60000 R0000075 60
 c103 R0000000 17220 R0000076 60
 c104 R0000077 60
 c105 R0000078 60
 c106 R0000000 60060 R0000079 60
 c107 R0000000 60060 R0000080 60
 c108 R0000088 60 R0000087 60
 c108 R0000086 60 R0000085 60
 c108 R0000084 -60 R0000083 -60
 c108 R0000082 -60 R0000081 -60
 c108 R0000078 -60 R0000057 60
 c109 R0000000 31200 R0000081 60
 c110 R0000000 66000 R0000082 60
 c111 R0000000 30000 R0000083 60
 c112 R0000000 30000 R0000084 60
 c113 R0000085 60
 c114 R0000000 60060 R0000086 60
 c115 R0000087 60
 c116 R0000088 60
 c117 R0000000 20220 R0000100 -60
 c117 R0000099 60 R0000098 60
 c118 R0000000 18720 R0000100 60
 c118 R0000099 -60 R0000098 -60
 c118 R0000092 60 R0000091 60
 c118 R0000090 60 R0000089 60
 c118 R0000086 -60
 c119 R0000089 60
 c120 R0000090 60
 c121 R0000091 60
 c122 R0000000 60060 R0000092 60
 c123 R0000000 30000 R0000094 -60
 c123 R0000093 -60 R0000092 60
 c124 R0000093 60
 c125 R0000000 30000 R0000094 60
 c126 R0000000 30000 R0000095 60
 c127 R0000096 60 R0000095 -60
 c127 R0000094 -60
 c128 R0000000 60060 R0000096 60
 c129 R0000000 60060 R0000097 60
 c130 R0000000 30000 R0000097 60
 c130 R0000095 -60 R0000093 60
 c131 R0000000 60060 R0000098 60
 c132 R0000099 60
 c133 R0000000 60060 R0000100 60
 c134 R0000106 60 R0000105 -60
 c134 R0000104 -60 R0000103 -60
 c134 R0000102 -60 R0000101 -60
 c134 R0000088 -60 R0000077 -60
 c134 R0000056 60
 c135 R0000000 21960 R0000101 60
 c136 R0000000 29340 R0000102 60
 c137 R0000000 60000 R0000103 60
 c138 R0000104 60
 c139 R0000000 54360 R0000105 60
 c140 R0000000 60060 R0000106 60
 c141 R0000000 60060 R0000107 60
 c142 R0000107 -60 R0000106 60
 c143 R0000000 60000 R0000107 60
 c144 R0000000 60060 R0000107 60
 c145 R0000000 60060 R0000108 60
 c146 R0000000 13920 R0000109 60
 c147 R0000110 60
 c148 R0000111 60
 c149 R0000112 60
 c150 R0000114 -60 R0000113 -60
 c150 R0000112 -60 R0000111 -60
 c150 R0000110 -60 R0000109 60
 c150 R0000108 60 R0000102 -60
 c150 R0000083 -60 R0000069 -60
 c150 R0000054 -60
 c151 R0000000 17580 R0000113 60
 c152 R0000000 42180 R0000114 60
 c153 R0000000 60060 R0000115 60
 c154 R0000000 29940 R0000116 60
 c155 R0000117 60
 c156 R0000000 60060 R0000118 60
 c157 R0000000 34800 R0000119 60
 c158 R0000000 14820 R0000171 60
 c158 R0000147 60 R0000125 -60
 c158 R0000124 60 R0000123 60
 c158 R0000122 -60 R0000121 -60
 c158 R0000120 -60 R0000119 -60
 c158 R0000118 -60 R0000117 -60
 c158 R0000116 60 R0000115 60
 c158 R0000109 -60 R0000001 -60
 c159 R0000171 -60 R0000147 -60
 c159 R0000126 -60 R0000001 60
 c160 R0000126 60 R0000125 60
 c160 R0000124 -60 R0000123 -60
 c161 R0000000 36000 R0000120 60
 c162 R0000000 31200 R0000121 60
 c163 R0000122 60
 c164 R0000000 60060 R0000123 60
 c165 R0000124 60
 c166 R0000000 60060 R0000125 60
 c167 R0000126 60
 c168 R0000144 -60 R0000140 -60
 c168 R0000128 -60 R0000118 60
 c169 R0000000 60060 R0000127 60
 c170 R0000128 60
 c171 R0000000 60060 R0000129 60
 c172 R0000000 28560 R0000130 60
 c173 R0000000 60000 R0000143 -60
 c173 R0000140 -60 R0000134 -60
 c173 R0000132 -60 R0000131 -60
 c173 R0000130 60 R0000129 60
 c173 R0000127 60 R0000119 60
 c173 R0000118 60 R0000047 60
 c174 R0000144 -60 R0000143 60
 c174 R0000134 60 R0000133 -60
 c174 R0000047 -60
 c175 R0000000 30000 R0000131 60
 c176 R0000000 30000 R0000132 60
 c177 R0000133 60
 c178 R0000000 30000 R0000134 60
 c179 R0000000 15660 R0000138 60
 c179 R0000137 60 R0000136 60
 c179 R0000135 60 R0000134 -60
 c179 R0000132 -60
 c180 R0000135 60
 c181 R0000136 60
 c182 R0000137 60
 c183 R0000000 60060 R0000138 60
 c184 R0000139 60
 c185 R0000141 60 R0000140 -60
 c185 R0000139 -60 R0000135 -60
 c186 R0000000 60000 R0000140 60
 c187 R0000000 60060 R0000141 60
 c188 R0000142 60
 c189 R0000000 30000 R0000143 60
 c190 R0000000 60060 R0000143 60
 c190 R0000142 60 R0000139 -60
 c190 R0000136 60 R0000131 60
 c191 R0000000 60060 R0000171 -60
 c191 R0000170 60 R0000166 60
 c191 R0000150 60 R0000143 -60
 c191 R0000142 -60 R0000139 60
 c191 R0000138 -60 R0000136 -60
 c191 R0000131 -60 R0000130 60
 c191 R0000129 60 R0000127 60
 c191 R0000119 60 R0000118 60
 c191 R0000097 -60 R0000063 60
 c191 R0000062 60 R0000050 60
 c191 R0000047 60 R0000007 60
 c191 R0000006 60
 c192 R0000000 32400 R0000171 60
 c192 R0000170 -60 R0000169 -60
 c192 R0000168 -60 R0000167 60
 c192 R0000150 -60 R0000141 -60
 c192 R0000062 -60 R0000050 -60
 c192 R0000006 -60
 c193 R0000000 25860 R0000169 60
 c193 R0000168 60 R0000167 -60
 c193 R0000166 -60 R0000097 60
 c193 R0000063 -60 R0000007 -60
 c194 R0000144 60
 c195 R0000000 60060 R0000145 60
 c196 R0000000 19680 R0000147 -60
 c196 R0000146 -60 R0000145 60
 c196 R0000130 -60 R0000124 -60
 c196 R0000122 60 R0000117 60
 c196 R0000108 -60
 c197 R0000000 31200 R0000146 60
 c198 R0000147 60
 c199 R0000148 60
 c200 R0000149 60
 c201 R0000150 -60 R0000149 -60
 c201 R0000148 60 R0000129 -60
 c201 R0000060 -60 R0000052 -60
 c201 R0000046 -60 R0000043 60
 c201 R0000037 60
 c202 R0000000 36000 R0000150 60
 c203 R0000151 60
 c204 R0000151 -60 R0000148 -60
 c204 R0000127 -60 R0000063 -60
 c204 R0000062 -60 R0000061 60
 c204 R0000060 60 R0000058 60
 c204 R0000057 60 R0000056 60
 c204 R0000055 60 R0000054 60
 c204 R0000053 60 R0000052 60
 c204 R0000051 60 R0000048 60
 c204 R0000045 -60 R0000035 60
 c205 R0000000 20000 R0000152 60
 c206 R0000000 60060 R0000153 60
 c207 R0000154 60
 c208 R0000155 60
 c209 R0000156 60
 c210 R0000157 60
 c211 R0000000 120120 R0000165 60
 c211 R0000164 60 R0000162 60
 c211 R0000123 60 R0000100 60
 c211 R0000099 -60 R0000098 -60
 c211 R0000092 60 R0000091 60
 c211 R0000089 60 R0000086 -60
 c211 R0000009 60
 c212 R0000000 60060 R0000158 60
 c213 R0000000 60060 R0000159 60
 c214 R0000160 60
 c215 R0000000 30000 R0000161 60
 c216 R0000000 30000 R0000162 60
 c217 R0000163 60
 c218 R0000164 60
 c219 R0000165 60
 c220 R0000166 60
 c221 R0000000 43140 R0000167 60
 c222 R0000168 60
 c223 R0000169 60
 c224 R0000170 60
 c225 R0000000 60060 R0000171 60
 c226 R0000001 -60
 c227 R0000002 -60
 c228 R0000003 -60
 c229 R0000004 -60
 c230 R0000005 -60
 c231 R0000006 -60
 c232 R0000007 -60
 c233 R0000008 -60
 c234 R0000009 -60
 c235 R0000010 -60
 c236 R0000011 -60
 c237 R0000012 -60
 c238 R0000013 -60
 c239 R0000014 -60
 c240 R0000015 -60
 c241 R0000016 -60
 c242 R0000017 -60
 c243 R0000018 -60
 c244 R0000019 -60
 c245 R0000020 -60
 c246 R0000021 -60
 c247 R0000022 -60
 c248 R0000023 -60
 c249 R0000024 -60
 c250 R0000025 -60
 c251 R0000026 -60
 c252 R0000027 -60
 c253 R0000028 -60
 c254 R0000029 -60
 c255 R0000030 -60
 c256 R0000031 -60
 c257 R0000032 -60
 c258 R0000033 -60
 c259 R0000034 -60
 c260 R0000035 -60
 c261 R0000036 -60
 c262 R0000037 -60
 c263 R0000038 -60
 c264 R0000039 -60
 c265 R0000040 -60
 c266 R0000041 -60
 c267 R0000042 -60
 c268 R0000043 -60
 c269 R0000044 -60
 c270 R0000045 -60
 c271 R0000046 -60
 c272 R0000047 -60
 c273 R0000048 -60
 c274 R0000049 -60
 c275 R0000050 -60
 c276 R0000051 -60
 c277 R0000052 -60
 c278 R0000053 -60
 c279 R0000054 -60
 c280 R0000055 -60
 c281 R0000056 -60
 c282 R0000057 -60
 c283 R0000058 -60
 c284 R0000059 -60
 c285 R0000060 -60
 c286 R0000061 -60
 c287 R0000062 -60
 c288 R0000063 -60
 c289 R0000064 -60
 c290 R0000065 -60
 c291 R0000066 -60
 c292 R0000067 -60
 c293 R0000068 -60
 c294 R0000069 -60
 c295 R0000070 -60
 c296 R0000071 -60
 c297 R0000072 -60
 c298 R0000073 -60
 c299 R0000074 -60
 c300 R0000075 -60
 c301 R0000076 -60
 c302 R0000077 -60
 c303 R0000078 -60
 c304 R0000079 -60
 c305 R0000080 -60
 c306 R0000081 -60
 c307 R0000082 -60
 c308 R0000083 -60
 c309 R0000084 -60
 c310 R0000085 -60
 c311 R0000086 -60
 c312 R0000087 -60
 c313 R0000088 -60
 c314 R0000089 -60
 c315 R0000090 -60
 c316 R0000091 -60
 c317 R0000092 -60
 c318 R0000093 -60
 c319 R0000094 -60
 c320 R0000095 -60
 c321 R0000096 -60
 c322 R0000097 -60
 c323 R0000098 -60
 c324 R0000099 -60
 c325 R0000100 -60
 c326 R0000101 -60
 c327 R0000102 -60
 c328 R0000103 -60
 c329 R0000104 -60
 c330 R0000105 -60
 c331 R0000106 -60
 c332 R0000107 -60
 c333 R0000108 -60
 c334 R0000109 -60
 c335 R0000110 -60
 c336 R0000111 -60
 c337 R0000112 -60
 c338 R0000113 -60
 c339 R0000114 -60
 c340 R0000115 -60
 c341 R0000116 -60
 c342 R0000117 -60
 c343 R0000118 -60
 c344 R0000119 -60
 c345 R0000120 -60
 c346 R0000121 -60
 c347 R0000122 -60
 c348 R0000123 -60
 c349 R0000124 -60
 c350 R0000125 -60
 c351 R0000126 -60
 c352 R0000127 -60
 c353 R0000128 -60
 c354 R0000129 -60
 c355 R0000130 -60
 c356 R0000131 -60
 c357 R0000132 -60
 c358 R0000133 -60
 c359 R0000134 -60
 c360 R0000135 -60
 c361 R0000136 -60
 c362 R0000137 -60
 c363 R0000138 -60
 c364 R0000139 -60
 c365 R0000140 -60
 c366 R0000141 -60
 c367 R0000142 -60
 c368 R0000143 -60
 c369 R0000144 -60
 c370 R0000145 -60
 c371 R0000146 -60
 c372 R0000147 -60
 c373 R0000148 -60
 c374 R0000149 -60
 c375 R0000150 -60
 c376 R0000151 -60
 c377 R0000152 -60
 c378 R0000153 -60
 c379 R0000154 -60
 c380 R0000155 -60
 c381 R0000156 -60
 c382 R0000157 -60
 c383 R0000158 -60
 c384 R0000159 -60
 c385 R0000160 -60
 c386 R0000161 -60
 c387 R0000162 -60
 c388 R0000163 -60
 c389 R0000164 -60
 c390 R0000165 -60
 c391 R0000166 -60
 c392 R0000167 -60
 c393 R0000168 -60
 c394 R0000169 -60
 c395 R0000170 -60
 c396 R0000171 -60
RHS
 RHS1 R0000001 -35 R0000002 -1
 RHS1 R0000003 -115 R0000004 -24
 RHS1 R0000005 -31 R0000006 -91
 RHS1 R0000007 -80 R0000009 2
 RHS1 R0000010 -30 R0000011 -30
 RHS1 R0000012 22 R0000013 24
 RHS1 R0000014 -1 R0000015 -30
 RHS1 R0000016 -31 R0000017 -30
 RHS1 R0000018 -30 R0000019 -30
 RHS1 R0000020 -30 R0000021 -31
 RHS1 R0000022 -1 R0000023 -30
 RHS1 R0000024 -31 R0000025 -122
 RHS1 R0000026 -152 R0000028 1
 RHS1 R0000029 -29 R0000030 -59
 RHS1 R0000031 -89 R0000033 -30
 RHS1 R0000034 -30 R0000036 -30
 RHS1 R0000037 -30 R0000038 1
 RHS1 R0000039 -29 R0000040 -30
 RHS1 R0000041 -14 R0000042 -44
 RHS1 R0000043 -6 R0000044 27
 RHS1 R0000045 -3 R0000046 -3
 RHS1 R0000047 -156 R0000048 -60
 RHS1 R0000049 -68 R0000050 -134
 RHS1 R0000051 -59 R0000052 -60
 RHS1 R0000053 -167 R0000054 -145
 RHS1 R0000055 -108 R0000056 -45
 RHS1 R0000057 -45 R0000058 -99
 RHS1 R0000059 -59 R0000060 -59
 RHS1 R0000061 -116 R0000062 -138
 RHS1 R0000063 -136 R0000064 -73
 RHS1 R0000065 -27 R0000066 -57
 RHS1 R0000067 -57 R0000068 -56
 RHS1 R0000069 -87 R0000070 -78
 RHS1 R0000071 -98 R0000072 -68
 RHS1 R0000073 -49 R0000074 -68
 RHS1 R0000075 -86 R0000076 -30
 RHS1 R0000077 -57 R0000078 -57
 RHS1 R0000079 -99 R0000080 -88
 RHS1 R0000081 -1 R0000082 -30
 RHS1 R0000083 -163 R0000084 -66
 RHS1 R0000085 24 R0000087 -54
 RHS1 R0000088 -3 R0000089 55
 RHS1 R0000090 23 R0000091 39
 RHS1 R0000092 29 R0000093 -3
 RHS1 R0000094 -63 R0000095 -57
 RHS1 R0000096 -6 R0000097 54
 RHS1 R0000098 -101 R0000099 -102
 RHS1 R0000100 -58 R0000101 -1
 RHS1 R0000102 -138 R0000103 -150
 RHS1 R0000104 -72 R0000105 -30
 RHS1 R0000106 2 R0000107 -22
 RHS1 R0000108 -1 R0000109 -3
 RHS1 R0000110 -16 R0000111 -100
 RHS1 R0000112 -71 R0000113 -90
 RHS1 R0000114 -30 R0000115 -74
 RHS1 R0000116 -75 R0000117 -1
 RHS1 R0000118 -22 R0000119 -53
 RHS1 R0000120 -30 R0000121 -90
 RHS1 R0000122 -15 R0000123 -75
 RHS1 R0000124 -110 R0000125 -31
 RHS1 R0000126 -3 R0000127 -97
 RHS1 R0000128 -30 R0000129 -67
 RHS1 R0000130 -53 R0000131 -45
 RHS1 R0000132 -72 R0000133 -30
 RHS1 R0000134 -73 R0000135 -3
 RHS1 R0000136 26 R0000137 56
 RHS1 R0000138 -33 R0000139 -30
 RHS1 R0000140 -133 R0000142 29
 RHS1 R0000143 -46 R0000144 -59
 RHS1 R0000145 -82 R0000146 -90
 RHS1 R0000147 -110 R0000148 -3
 RHS1 R0000149 -68 R0000150 -134
 RHS1 R0000151 -68 R0000152 -59
 RHS1 R0000153 27 R0000154 -33
 RHS1 R0000155 -3 R0000156 -58
 RHS1 R0000157 -34 R0000159 -84
 RHS1 R0000160 -87 R0000161 -3
 RHS1 R0000162 59 R0000163 -5
 RHS1 R0000164 29 R0000165 59
 RHS1 R0000166 -168 R0000167 -50
 RHS1 R0000168 -1 R0000169 -16
 RHS1 R0000170 -119 R0000171 -15
BOUNDS
 UP BND1 c0 0.0666666667
 UP BND1 c1 0.9
 UP BND1 c2 0.9
 UP BND1 c3 0.9833333333
 UP BND1 c4 0.0666666667
 UP BND1 c5 0.9
 UP BND1 c6 0.9833333333
 UP BND1 c7 0.0666666667
 UP BND1 c8 0.8
 UP BND1 c9 0.9666666667
 UP BND1 c10 0.9666666667
 UP BND1 c11 0.0666666667
 UP BND1 c12 0.8666666667
 UP BND1 c13 0.9833333333
 UP BND1 c14 0.9833333333
 UP BND1 c15 0.9833333333
 UP BND1 c16 0.9833333333
 UP BND1 c17 0.9833333333
 UP BND1 c18 0.9
 UP BND1 c19 0.9
 UP BND1 c20 0.8666666667
 UP BND1 c21 0.0666666667
 UP BND1 c22 0.9
 UP BND1 c23 0.9
 UP BND1 c24 0.9833333333
 UP BND1 c25 0.9
 UP BND1 c26 0.9833333333
 UP BND1 c27 0.9833333333
 UP BND1 c28 0.9833333333
 UP BND1 c29 0.9833333333
 UP BND1 c30 0.9833333333
 UP BND1 c31 0.9833333333
 UP BND1 c32 0.9
 UP BND1 c33 0.85
 UP BND1 c34 0.85
 UP BND1 c35 0.85
 UP BND1 c36 0.9
 UP BND1 c37 0.9
 UP BND1 c38 0.9833333333
 UP BND1 c39 0.1
 UP BND1 c40 0.9
 UP BND1 c41 0.9
 UP BND1 c42 0.9
 UP BND1 c43 0.9
 UP BND1 c44 0.95
 UP BND1 c45 0.95
 UP BND1 c46 0.1
 UP BND1 c47 0.9
 UP BND1 c48 0.9
 UP BND1 c49 0.9833333333
 UP BND1 c50 0.9833333333
 UP BND1 c51 0.9833333333
 UP BND1 c52 0.9833333333
 UP BND1 c53 0.9833333333
 UP BND1 c54 0.9833333333
 UP BND1 c55 0.9666666667
 UP BND1 c56 0.1
 UP BND1 c57 0.9666666667
 UP BND1 c58 0.1
 UP BND1 c59 0.9
 UP BND1 c60 0.9
 UP BND1 c61 0.9
 UP BND1 c62 0.9
 UP BND1 c63 0.9833333333
 UP BND1 c64 0.9833333333
 UP BND1 c65 0.9833333333
 UP BND1 c66 0.1
 UP BND1 c67 0.1
 UP BND1 c68 0.9
 UP BND1 c69 0.9
 UP BND1 c70 0.0666666667
 UP BND1 c71 0.9833333333
 UP BND1 c72 0.8666666667
 UP BND1 c73 0.85
 UP BND1 c74 0.9833333333
 UP BND1 c75 0.9
 UP BND1 c76 0.9833333333
 UP BND1 c77 0.9833333333
 UP BND1 c78 0.9833333333
 UP BND1 c79 0.9833333333
 UP BND1 c80 0.9833333333
 UP BND1 c81 0.9
 UP BND1 c82 0.9
 UP BND1 c83 0.9
 UP BND1 c84 0.9
 UP BND1 c85 0.9
 UP BND1 c86 0.8666666667
 UP BND1 c87 0.9833333333
 UP BND1 c88 0.0666666667
 UP BND1 c89 0.8833333333
 UP BND1 c90 0.9833333333
 UP BND1 c91 0.9833333333
 UP BND1 c92 0.9833333333
 UP BND1 c93 0.9833333333
 UP BND1 c94 0.8333333333
 UP BND1 c95 0.8666666667
 UP BND1 c96 0.9
 UP BND1 c97 0.8833333333
 UP BND1 c98 0.8666666667
 UP BND1 c99 0.8666666667
 UP BND1 c100 0.8833333333
 UP BND1 c101 0.8666666667
 UP BND1 c102 0.9833333333
 UP BND1 c103 0.9
 UP BND1 c104 0.9
 UP BND1 c105 0.9
 UP BND1 c106 0.0666666667
 UP BND1 c107 0.0833333333
 UP BND1 c108 0.9
 UP BND1 c109 0.9833333333
 UP BND1 c110 0.9833333333
 UP BND1 c111 0.9833333333
 UP BND1 c112 0.9833333333
 UP BND1 c113 0.9
 UP BND1 c114 0.0666666667
 UP BND1 c115 0.9
 UP BND1 c116 0.9
 UP BND1 c117 0.9833333333
 UP BND1 c118 0.8833333333
 UP BND1 c119 0.8833333333
 UP BND1 c120 0.8833333333
 UP BND1 c121 0.9333333333
 UP BND1 c122 0.0666666667
 UP BND1 c123 0.9833333333
 UP BND1 c124 0.9
 UP BND1 c125 0.65
 UP BND1 c126 0.9833333333
 UP BND1 c127 0.9
 UP BND1 c128 0.0666666667
 UP BND1 c129 0.0666666667
 UP BND1 c130 0.9833333333
 UP BND1 c131 0.0833333333
 UP BND1 c132 0.85
 UP BND1 c133 0.0666666667
 UP BND1 c134 0.9
 UP BND1 c135 0.9833333333
 UP BND1 c136 0.9833333333
 UP BND1 c137 0.9833333333
 UP BND1 c138 0.9
 UP BND1 c139 0.9
 UP BND1 c140 0.0666666667
 UP BND1 c141 0.0666666667
 UP BND1 c142 0.9333333333
 UP BND1 c143 0.9833333333
 UP BND1 c144 0.0666666667
 UP BND1 c145 0.0666666667
 UP BND1 c146 0.9833333333
 UP BND1 c147 0.9
 UP BND1 c148 0.9
 UP BND1 c149 0.9
 UP BND1 c150 0.9
 UP BND1 c151 0.9
 UP BND1 c152 0.9
 UP BND1 c153 0.0666666667
 UP BND1 c154 0.9833333333
 UP BND1 c155 0.9666666667
 UP BND1 c156 0.0666666667
 UP BND1 c157 0.9833333333
 UP BND1 c158 0.9833333333
 UP BND1 c159 0.9666666667
 UP BND1 c160 0.9666666667
 UP BND1 c161 0.9833333333
 UP BND1 c162 0.9833333333
 UP BND1 c163 0.8666666667
 UP BND1 c164 0.0666666667
 UP BND1 c165 0.9666666667
 UP BND1 c166 0.0666666667
 UP BND1 c167 0.8166666667
 UP BND1 c168 0.9666666667
 UP BND1 c169 0.0666666667
 UP BND1 c170 0.9666666667
 UP BND1 c171 0.0666666667
 UP BND1 c172 0.9833333333
 UP BND1 c173 0.9833333333
 UP BND1 c174 0.9666666667
 UP BND1 c175 0.9833333333
 UP BND1 c176 0.9833333333
 UP BND1 c177 0.9666666667
 UP BND1 c178 0.9833333333
 UP BND1 c179 0.9833333333
 UP BND1 c180 0.95
 UP BND1 c181 0.9666666667
 UP BND1 c182 0.9666666667
 UP BND1 c183 0.0666666667
 UP BND1 c184 0.95
 UP BND1 c185 0.95
 UP BND1 c186 0.9833333333
 UP BND1 c187 0.0666666667
 UP BND1 c188 0.9666666667
 UP BND1 c189 0.9833333333
 UP BND1 c190 0.0666666667
 UP BND1 c191 0.0666666667
 UP BND1 c192 0.9833333333
 UP BND1 c193 0.9833333333
 UP BND1 c194 0.9666666667
 UP BND1 c195 0.0666666667
 UP BND1 c196 0.9833333333
 UP BND1 c197 0.9833333333
 UP BND1 c198 0.9666666667
 UP BND1 c199 0.9
 UP BND1 c200 0.8666666667
 UP BND1 c201 0.85
 UP BND1 c202 0.9833333333
 UP BND1 c203 0.8666666667
 UP BND1 c204 0.85
 UP BND1 c205 0.9833333333
 UP BND1 c206 0.1
 UP BND1 c207 0.9
 UP BND1 c208 0.9
 UP BND1 c209 0.8833333333
 UP BND1 c210 0.8833333333
 UP BND1 c211 0.0666666667
 UP BND1 c212 0.0666666667
 UP BND1 c213 0.0666666667
 UP BND1 c214 0.9
 UP BND1 c215 0.9833333333
 UP BND1 c216 0.9833333333
 UP BND1 c217 0.8666666667
 UP BND1 c218 0.9
 UP BND1 c219 0.9
 UP BND1 c220 0.9666666667
 UP BND1 c221 0.9833333333
 UP BND1 c222 0.9666666667
 UP BND1 c223 0.8666666667
 UP BND1 c224 0.9666666667
 UP BND1 c225 0.0666666667
 UP BND1 c226 4
 FX BND1 c227 0
 UP BND1 c228 2
 UP BND1 c229 1
 UP BND1 c230 1
 UP BND1 c231 2
 UP BND1 c232 2
 FX BND1 c233 0
 UP BND1 c234 2
 UP BND1 c235 1
 UP BND1 c236 1
 UP BND1 c237 1
 UP BND1 c238 1
 UP BND1 c239 1
 UP BND1 c240 1
 UP BND1 c241 1
 UP BND1 c242 1
 UP BND1 c243 1
 UP BND1 c244 1
 UP BND1 c245 1
 UP BND1 c246 1
 FX BND1 c247 0
 UP BND1 c248 1
 UP BND1 c249 1
 UP BND1 c250 3
 UP BND1 c251 4
 FX BND1 c252 0
 FX BND1 c253 0
 UP BND1 c254 1
 UP BND1 c255 3
 UP BND1 c256 4
 UP BND1 c257 2
 UP BND1 c258 3
 UP BND1 c259 1
 FX BND1 c260 0
 UP BND1 c261 1
 UP BND1 c262 1
 FX BND1 c263 0
 UP BND1 c264 1
 UP BND1 c265 1
 UP BND1 c266 1
 UP BND1 c267 1
 UP BND1 c268 1
 FX BND1 c269 0
 UP BND1 c270 1
 UP BND1 c271 1
 UP BND1 c272 4
 UP BND1 c273 2
 UP BND1 c274 2
 UP BND1 c275 4
 UP BND1 c276 2
 UP BND1 c277 2
 UP BND1 c278 4
 UP BND1 c279 5
 UP BND1 c280 4
 UP BND1 c281 3
 UP BND1 c282 3
 UP BND1 c283 3
 UP BND1 c284 1
 UP BND1 c285 2
 UP BND1 c286 4
 UP BND1 c287 5
 UP BND1 c288 4
 UP BND1 c289 3
 UP BND1 c290 3
 UP BND1 c291 3
 UP BND1 c292 3
 UP BND1 c293 3
 UP BND1 c294 4
 UP BND1 c295 3
 UP BND1 c296 3
 UP BND1 c297 2
 UP BND1 c298 2
 UP BND1 c299 2
 UP BND1 c300 3
 UP BND1 c301 1
 UP BND1 c302 1
 UP BND1 c303 1
 UP BND1 c304 3
 UP BND1 c305 3
 UP BND1 c306 1
 UP BND1 c307 1
 UP BND1 c308 4
 UP BND1 c309 2
 UP BND1 c310 1
 FX BND1 c311 0
 UP BND1 c312 3
 UP BND1 c313 1
 UP BND1 c314 2
 UP BND1 c315 1
 UP BND1 c316 3
 UP BND1 c317 3
 UP BND1 c318 1
 UP BND1 c319 1
 UP BND1 c320 1
 UP BND1 c321 2
 UP BND1 c322 3
 UP BND1 c323 3
 UP BND1 c324 4
 UP BND1 c325 4
 UP BND1 c326 1
 UP BND1 c327 4
 UP BND1 c328 3
 UP BND1 c329 3
 UP BND1 c330 1
 UP BND1 c331 3
 UP BND1 c332 1
 FX BND1 c333 0
 UP BND1 c334 1
 UP BND1 c335 2
 UP BND1 c336 3
 UP BND1 c337 2
 UP BND1 c338 3
 UP BND1 c339 1
 UP BND1 c340 2
 UP BND1 c341 3
 UP BND1 c342 1
 UP BND1 c343 2
 UP BND1 c344 2
 UP BND1 c345 1
 UP BND1 c346 3
 UP BND1 c347 2
 UP BND1 c348 3
 UP BND1 c349 3
 UP BND1 c350 5
 UP BND1 c351 1
 UP BND1 c352 3
 UP BND1 c353 1
 UP BND1 c354 3
 UP BND1 c355 2
 UP BND1 c356 1
 UP BND1 c357 2
 UP BND1 c358 1
 UP BND1 c359 3
 UP BND1 c360 1
 UP BND1 c361 1
 UP BND1 c362 1
 UP BND1 c363 2
 UP BND1 c364 1
 UP BND1 c365 3
 UP BND1 c366 1
 FX BND1 c367 0
 UP BND1 c368 2
 UP BND1 c369 1
 UP BND1 c370 2
 UP BND1 c371 3
 UP BND1 c372 3
 UP BND1 c373 1
 UP BND1 c374 2
 UP BND1 c375 4
 UP BND1 c376 2
 UP BND1 c377 1
 FX BND1 c378 0
 UP BND1 c379 2
 UP BND1 c380 1
 UP BND1 c381 1
 UP BND1 c382 2
 FX BND1 c383 0
 UP BND1 c384 1
 UP BND1 c385 2
 UP BND1 c386 1
 UP BND1 c387 2
 UP BND1 c388 1
 UP BND1 c389 2
 UP BND1 c390 2
 UP BND1 c391 3
 UP BND1 c392 2
 UP BND1 c393 1
 UP BND1 c394 2
 UP BND1 c395 3
 UP BND1 c396 2
ENDATA
